<number of tasks>
50

<cycle time>
1000

<order strength>
0.195


<task times>
1 535
2 322
3 273
4 429
5 475
6 511
7 715
8 515
9 387
10 513
11 510
12 205
13 401
14 498
15 620
16 671
17 633
18 521
19 551
20 390
21 426
22 416
23 540
24 468
25 363
26 482
27 653
28 646
29 505
30 625
31 569
32 532
33 523
34 478
35 622
36 588
37 743
38 693
39 502
40 530
41 451
42 401
43 685
44 440
45 546
46 579
47 581
48 481
49 343
50 631

<precedence relations>
1,6
2,5
2,8
3,7
3,47
4,9
5,10
6,11
7,13
8,12
8,15
9,14
9,16
10,17
11,18
12,20
13,22
14,19
14,24
15,21
15,31
15,32
15,44
16,23
16,25
17,26
18,27
19,28
20,29
21,30
24,31
25,31
25,32
26,34
27,36
28,37
29,35
30,38
31,33
31,39
31,40
31,41
31,46
32,42
33,43
34,44
35,45
37,48
38,46
40,47
42,48
43,49
44,50

<end>
